c description: Random 3-CNF over 18 variables and 77 clauses
c generator: CNFgen (0.9.2)
c copyright: (C) 2012-2022 Massimo Lauria <massimo.lauria@uniroma1.it>
c url: https://massimolauria.net/cnfgen
c command line: cnfgen --output CNF_4.28/18_bit_77_126.cnf randkcnf 3 18 77
c
p cnf 18 77
-2 -4 9 0
6 9 -12 0
-3 -9 15 0
-4 -9 -13 0
1 -5 11 0
1 -6 -9 0
-2 16 -17 0
2 4 -16 0
9 11 -15 0
4 -8 -16 0
-8 -9 18 0
-2 16 -18 0
10 14 17 0
11 12 -16 0
-4 5 -18 0
-5 -7 10 0
4 12 -16 0
3 4 8 0
5 -7 11 0
-7 -11 -12 0
3 -7 -16 0
1 -16 17 0
5 -14 -17 0
3 5 -14 0
1 5 17 0
-4 -10 -18 0
-1 -4 -13 0
2 -3 14 0
-5 -17 18 0
-1 -16 -17 0
3 5 6 0
6 10 -16 0
2 3 -4 0
-12 -16 -17 0
-6 7 16 0
-4 -5 14 0
5 16 18 0
-1 -6 -17 0
1 5 8 0
2 -10 -14 0
-11 16 -18 0
8 9 11 0
7 9 15 0
-2 -6 -8 0
4 -6 16 0
-2 -6 8 0
-6 7 -17 0
-5 -8 17 0
1 3 -17 0
5 -7 -15 0
12 13 16 0
-6 -11 -12 0
-7 8 -13 0
10 15 -17 0
3 -13 18 0
-3 -14 -16 0
7 -8 -12 0
2 4 7 0
-9 10 -17 0
-8 10 11 0
4 7 10 0
-4 12 17 0
4 8 13 0
-3 -12 -13 0
-2 10 -12 0
-5 8 -17 0
5 -9 13 0
-11 16 17 0
2 -4 -10 0
-3 -8 15 0
12 -15 -18 0
3 -7 -11 0
-7 11 -13 0
4 -9 13 0
7 -15 -18 0
3 -11 -13 0
5 8 17 0
